feasible solution found by trivial heuristic after 0.2 seconds, objective value 4.024240e+05
presolving:
   (0.6s) running MILP presolver
   (0.8s) MILP presolver found nothing
(round 1, exhaustive) 0 del vars, 0 del conss, 0 add conss, 0 chg bounds, 0 chg sides, 0 chg coeffs, 2400 upgd conss, 0 impls, 0 clqs
   (1.3s) probing: 51/2000 (2.5%) - 0 fixings, 0 aggregations, 0 implications, 0 bound changes
   (1.3s) probing aborted: 50/50 successive totally useless probings
   (3.2s) symmetry computation started: requiring (bin +, int -, cont +), (fixed: bin -, int +, cont -)
   (3.3s) no symmetry present
presolving (2 rounds: 2 fast, 2 medium, 2 exhaustive):
 0 deleted vars, 0 deleted constraints, 0 added constraints, 0 tightened bounds, 0 added holes, 0 changed sides, 0 changed coefficients
 0 implications, 0 cliques
presolved problem has 2000 variables (2000 bin, 0 int, 0 impl, 0 cont) and 2400 constraints
   2400 constraints of type <logicor>
transformed objective value is always integral (scale: 1)
Presolving Time: 3.45
transformed 1/1 original solutions to the transformed problem space

 time | node  | left  |LP iter|LP it/n|mem/heur|mdpt |vars |cons |rows |cuts |sepa|confs|strbr|  dualbound   | primalbound  |  gap   | compl. 
p 3.9s|     1 |     0 |     0 |     - |   locks|   0 |2000 |2400 |2400 |   0 |  0 |   0 |   0 | 0.000000e+00 | 6.161000e+03 |    Inf | unknown
  4.3s|     1 |     0 |  1427 |     - |   511M |   0 |2000 |2400 |2400 |   0 |  0 |   0 |   0 | 1.782403e+02 | 6.161000e+03 |3356.57%| unknown
r 4.3s|     1 |     0 |  1427 |     - |simplero|   0 |2000 |2400 |2400 |   0 |  0 |   0 |   0 | 1.782403e+02 | 8.330000e+02 | 367.35%| unknown
r 4.4s|     1 |     0 |  1427 |     - |rounding|   0 |2000 |2400 |2400 |   0 |  0 |   0 |   0 | 1.782403e+02 | 8.290000e+02 | 365.10%| unknown
r 4.4s|     1 |     0 |  1427 |     - |shifting|   0 |2000 |2400 |2400 |   0 |  0 |   0 |   0 | 1.782403e+02 | 8.190000e+02 | 359.49%| unknown
i 4.4s|     1 |     0 |  1427 |     - |  oneopt|   0 |2000 |2400 |2400 |   0 |  0 |   0 |   0 | 1.782403e+02 | 2.230000e+02 |  25.11%| unknown
  4.7s|     1 |     0 |  1430 |     - |   512M |   0 |2000 |2400 |2401 |   1 |  1 |   0 |   0 | 1.782603e+02 | 2.230000e+02 |  25.10%| unknown
  4.7s|     1 |     0 |  1430 |     - |   512M |   0 |2000 |2400 |2401 |   1 |  1 |   0 |   0 | 1.782603e+02 | 2.230000e+02 |  25.10%| unknown
  4.7s|     1 |     0 |  1430 |     - |   512M |   0 |2000 |2400 |2401 |   1 |  1 |   0 |   0 | 1.782603e+02 | 2.230000e+02 |  25.10%| unknown
d 6.1s|     1 |     0 |  2430 |     - |farkasdi|   0 |2000 |2400 |2401 |   0 |  3 |   0 |   0 | 1.782603e+02 | 2.130000e+02 |  19.49%| unknown
(run 1, node 1) restarting after 1703 global fixings of integer variables

(restart) converted 1 cuts from the global cut pool into linear constraints

presolving:
(round 1, fast)       1703 del vars, 0 del conss, 0 add conss, 0 chg bounds, 0 chg sides, 408562 chg coeffs, 0 upgd conss, 0 impls, 0 clqs
   (10.2s) running MILP presolver
   (10.2s) MILP presolver found nothing
presolving (2 rounds: 2 fast, 1 medium, 1 exhaustive):
 1703 deleted vars, 0 deleted constraints, 0 added constraints, 0 tightened bounds, 0 added holes, 0 changed sides, 408562 changed coefficients
 0 implications, 0 cliques
presolved problem has 297 variables (297 bin, 0 int, 0 impl, 0 cont) and 2401 constraints
      1 constraints of type <knapsack>
   2400 constraints of type <logicor>
transformed objective value is always integral (scale: 1)
Presolving Time: 3.74
transformed 69/71 original solutions to the transformed problem space

 time | node  | left  |LP iter|LP it/n|mem/heur|mdpt |vars |cons |rows |cuts |sepa|confs|strbr|  dualbound   | primalbound  |  gap   | compl. 
 10.4s|     1 |     0 |  3083 |     - |   506M |   0 | 297 |2401 |2401 |   0 |  0 |   0 |   0 | 1.782603e+02 | 2.130000e+02 |  19.49%| unknown
 10.4s|     1 |     0 |  3083 |     - |   506M |   0 | 297 |2401 |2401 |   0 |  0 |   0 |   0 | 1.782603e+02 | 2.130000e+02 |  19.49%| unknown
 10.5s|     1 |     0 |  3099 |     - |   506M |   0 | 297 |2401 |2402 |   1 |  1 |   0 |   0 | 1.784150e+02 | 2.130000e+02 |  19.38%| unknown
 10.5s|     1 |     0 |  3099 |     - |   506M |   0 | 297 |2401 |2402 |   1 |  1 |   0 |   0 | 1.784150e+02 | 2.130000e+02 |  19.38%| unknown
 10.5s|     1 |     0 |  3127 |     - |   507M |   0 | 297 |2401 |2403 |   2 |  2 |   0 |   0 | 1.787404e+02 | 2.130000e+02 |  19.17%| unknown
 10.5s|     1 |     0 |  3127 |     - |   507M |   0 | 297 |2401 |2403 |   2 |  2 |   0 |   0 | 1.787404e+02 | 2.130000e+02 |  19.17%| unknown
 10.6s|     1 |     0 |  3146 |     - |   507M |   0 | 297 |2401 |2404 |   3 |  3 |   0 |   0 | 1.788313e+02 | 2.130000e+02 |  19.11%| unknown
 10.6s|     1 |     0 |  3157 |     - |   508M |   0 | 297 |2401 |2405 |   4 |  4 |   0 |   0 | 1.788914e+02 | 2.130000e+02 |  19.07%| unknown
 10.7s|     1 |     0 |  3185 |     - |   508M |   0 | 297 |2401 |2406 |   5 |  5 |   0 |   0 | 1.789413e+02 | 2.130000e+02 |  19.03%| unknown
 10.7s|     1 |     0 |  3200 |     - |   509M |   0 | 297 |2401 |2407 |   6 |  6 |   0 |   0 | 1.789806e+02 | 2.130000e+02 |  19.01%| unknown
 10.8s|     1 |     0 |  3217 |     - |   510M |   0 | 297 |2401 |2408 |   7 |  7 |   0 |   0 | 1.790113e+02 | 2.130000e+02 |  18.99%| unknown
 10.9s|     1 |     0 |  3227 |     - |   509M |   0 | 297 |2401 |2409 |   8 |  8 |   0 |   0 | 1.790206e+02 | 2.130000e+02 |  18.98%| unknown
 10.9s|     1 |     0 |  3238 |     - |   510M |   0 | 297 |2401 |2410 |   9 |  9 |   0 |   0 | 1.790273e+02 | 2.130000e+02 |  18.98%| unknown
 11.0s|     1 |     0 |  3272 |     - |   512M |   0 | 297 |2401 |2411 |  10 | 10 |   0 |   0 | 1.790941e+02 | 2.130000e+02 |  18.93%| unknown
 11.0s|     1 |     0 |  3301 |     - |   512M |   0 | 297 |2401 |2412 |  11 | 11 |   0 |   0 | 1.791322e+02 | 2.130000e+02 |  18.91%| unknown
 time | node  | left  |LP iter|LP it/n|mem/heur|mdpt |vars |cons |rows |cuts |sepa|confs|strbr|  dualbound   | primalbound  |  gap   | compl. 
 11.0s|     1 |     0 |  3329 |     - |   512M |   0 | 297 |2401 |2413 |  12 | 12 |   0 |   0 | 1.791762e+02 | 2.130000e+02 |  18.88%| unknown
 11.0s|     1 |     0 |  3354 |     - |   513M |   0 | 297 |2401 |2414 |  13 | 13 |   0 |   0 | 1.791978e+02 | 2.130000e+02 |  18.86%| unknown
 11.0s|     1 |     0 |  3370 |     - |   513M |   0 | 297 |2401 |2415 |  14 | 14 |   0 |   0 | 1.792121e+02 | 2.130000e+02 |  18.85%| unknown
 11.1s|     1 |     0 |  3397 |     - |   513M |   0 | 297 |2401 |2416 |  15 | 15 |   0 |   0 | 1.792274e+02 | 2.130000e+02 |  18.84%| unknown
 11.1s|     1 |     0 |  3421 |     - |   513M |   0 | 297 |2401 |2417 |  16 | 16 |   0 |   0 | 1.792409e+02 | 2.130000e+02 |  18.83%| unknown
 11.1s|     1 |     0 |  3445 |     - |   514M |   0 | 297 |2401 |2418 |  17 | 17 |   0 |   0 | 1.792559e+02 | 2.130000e+02 |  18.82%| unknown
 11.2s|     1 |     0 |  3505 |     - |   514M |   0 | 297 |2401 |2419 |  18 | 18 |   0 |   0 | 1.793522e+02 | 2.130000e+02 |  18.76%| unknown
 11.2s|     1 |     0 |  3537 |     - |   514M |   0 | 297 |2401 |2420 |  19 | 19 |   0 |   0 | 1.793827e+02 | 2.130000e+02 |  18.74%| unknown
 11.2s|     1 |     0 |  3561 |     - |   514M |   0 | 297 |2401 |2421 |  20 | 20 |   0 |   0 | 1.794060e+02 | 2.130000e+02 |  18.73%| unknown
 11.2s|     1 |     0 |  3594 |     - |   514M |   0 | 297 |2401 |2422 |  21 | 21 |   0 |   0 | 1.794447e+02 | 2.130000e+02 |  18.70%| unknown
 11.2s|     1 |     0 |  3621 |     - |   514M |   0 | 297 |2401 |2423 |  22 | 22 |   0 |   0 | 1.794955e+02 | 2.130000e+02 |  18.67%| unknown
 11.3s|     1 |     0 |  3651 |     - |   514M |   0 | 297 |2401 |2424 |  23 | 23 |   0 |   0 | 1.795502e+02 | 2.130000e+02 |  18.63%| unknown
(run 2, node 1) restarting after 53 global fixings of integer variables

(restart) converted 23 cuts from the global cut pool into linear constraints

presolving:
(round 1, fast)       53 del vars, 0 del conss, 0 add conss, 0 chg bounds, 0 chg sides, 12559 chg coeffs, 0 upgd conss, 0 impls, 0 clqs
   (15.3s) running MILP presolver
   (15.3s) MILP presolver found nothing
(round 2, exhaustive) 53 del vars, 0 del conss, 0 add conss, 0 chg bounds, 0 chg sides, 12559 chg coeffs, 20 upgd conss, 0 impls, 0 clqs
presolving (3 rounds: 3 fast, 2 medium, 2 exhaustive):
 53 deleted vars, 0 deleted constraints, 0 added constraints, 0 tightened bounds, 0 added holes, 0 changed sides, 12559 changed coefficients
 0 implications, 0 cliques
presolved problem has 244 variables (244 bin, 0 int, 0 impl, 0 cont) and 2431 constraints
     21 constraints of type <knapsack>
      7 constraints of type <linear>
   2403 constraints of type <logicor>
transformed objective value is always integral (scale: 1)
Presolving Time: 3.85
transformed 100/100 original solutions to the transformed problem space

 time | node  | left  |LP iter|LP it/n|mem/heur|mdpt |vars |cons |rows |cuts |sepa|confs|strbr|  dualbound   | primalbound  |  gap   | compl. 
 15.5s|     1 |     0 |  5677 |     - |   514M |   0 | 244 |2431 |2424 |   0 |  0 |   9 |   0 | 1.795502e+02 | 2.130000e+02 |  18.63%| unknown
 15.6s|     1 |     0 |  5718 |     - |   514M |   0 | 244 |2431 |2425 |   1 |  1 |   9 |   0 | 1.797378e+02 | 2.130000e+02 |  18.51%| unknown
 15.6s|     1 |     0 |  5737 |     - |   515M |   0 | 244 |2431 |2426 |   2 |  2 |   9 |   0 | 1.798003e+02 | 2.130000e+02 |  18.46%| unknown
 15.7s|     1 |     0 |  5769 |     - |   515M |   0 | 244 |2431 |2427 |   3 |  3 |   9 |   0 | 1.798330e+02 | 2.130000e+02 |  18.44%| unknown
 15.8s|     1 |     0 |  5806 |     - |   516M |   0 | 244 |2431 |2428 |   4 |  4 |   9 |   0 | 1.799132e+02 | 2.130000e+02 |  18.39%| unknown
 15.9s|     1 |     0 |  5830 |     - |   516M |   0 | 244 |2431 |2429 |   5 |  5 |   9 |   0 | 1.799362e+02 | 2.130000e+02 |  18.38%| unknown
 16.0s|     1 |     0 |  5855 |     - |   517M |   0 | 244 |2431 |2430 |   6 |  6 |   9 |   0 | 1.799753e+02 | 2.130000e+02 |  18.35%| unknown
 16.1s|     1 |     0 |  5893 |     - |   517M |   0 | 244 |2431 |2431 |   7 |  7 |   9 |   0 | 1.800152e+02 | 2.130000e+02 |  18.32%| unknown
 16.2s|     1 |     0 |  5924 |     - |   517M |   0 | 244 |2431 |2432 |   8 |  8 |   9 |   0 | 1.800460e+02 | 2.130000e+02 |  18.30%| unknown
 16.3s|     1 |     0 |  5936 |     - |   517M |   0 | 244 |2431 |2433 |   9 |  9 |   9 |   0 | 1.800490e+02 | 2.130000e+02 |  18.30%| unknown
 16.4s|     1 |     0 |  5957 |     - |   519M |   0 | 244 |2431 |2434 |  10 | 10 |   9 |   0 | 1.800593e+02 | 2.130000e+02 |  18.29%| unknown
 16.4s|     1 |     0 |  5981 |     - |   519M |   0 | 244 |2431 |2435 |  11 | 11 |   9 |   0 | 1.800687e+02 | 2.130000e+02 |  18.29%| unknown
 16.5s|     1 |     0 |  6004 |     - |   519M |   0 | 244 |2431 |2423 |  12 | 12 |   9 |   0 | 1.800981e+02 | 2.130000e+02 |  18.27%| unknown
 16.5s|     1 |     0 |  6029 |     - |   519M |   0 | 244 |2431 |2425 |  14 | 13 |   9 |   0 | 1.801538e+02 | 2.130000e+02 |  18.23%| unknown
 16.5s|     1 |     0 |  6053 |     - |   519M |   0 | 244 |2431 |2426 |  15 | 14 |   9 |   0 | 1.801911e+02 | 2.130000e+02 |  18.21%| unknown
 time | node  | left  |LP iter|LP it/n|mem/heur|mdpt |vars |cons |rows |cuts |sepa|confs|strbr|  dualbound   | primalbound  |  gap   | compl. 
 16.6s|     1 |     0 |  6078 |     - |   519M |   0 | 244 |2431 |2427 |  16 | 15 |   9 |   0 | 1.802232e+02 | 2.130000e+02 |  18.19%| unknown
 16.6s|     1 |     0 |  6078 |     - |   519M |   0 | 244 |2431 |2427 |  16 | 15 |   9 |   0 | 1.802232e+02 | 2.130000e+02 |  18.19%| unknown
 16.6s|     1 |     0 |  6116 |     - |   519M |   0 | 244 |2431 |2428 |  17 | 16 |   9 |   0 | 1.802539e+02 | 2.130000e+02 |  18.17%| unknown
 16.7s|     1 |     0 |  6139 |     - |   519M |   0 | 244 |2431 |2429 |  18 | 17 |   9 |   0 | 1.802653e+02 | 2.130000e+02 |  18.16%| unknown
 16.7s|     1 |     0 |  6139 |     - |   519M |   0 | 244 |2431 |2429 |  18 | 17 |   9 |   0 | 1.802653e+02 | 2.130000e+02 |  18.16%| unknown
 16.7s|     1 |     0 |  6163 |     - |   519M |   0 | 244 |2431 |2428 |  19 | 18 |   9 |   0 | 1.802731e+02 | 2.130000e+02 |  18.15%| unknown
 16.7s|     1 |     0 |  6182 |     - |   519M |   0 | 244 |2431 |2429 |  20 | 19 |   9 |   0 | 1.802788e+02 | 2.130000e+02 |  18.15%| unknown
 16.8s|     1 |     0 |  6195 |     - |   519M |   0 | 244 |2431 |2430 |  21 | 20 |   9 |   0 | 1.802845e+02 | 2.130000e+02 |  18.15%| unknown
 16.8s|     1 |     0 |  6196 |     - |   519M |   0 | 244 |2431 |2431 |  22 | 21 |   9 |   0 | 1.802845e+02 | 2.130000e+02 |  18.15%| unknown
 16.8s|     1 |     0 |  6211 |     - |   519M |   0 | 244 |2431 |2432 |  23 | 22 |   9 |   0 | 1.802883e+02 | 2.130000e+02 |  18.14%| unknown
 21.7s|     1 |     2 |  7956 |     - |   519M |   0 | 244 |2435 |2432 |  23 | 24 |  15 |  19 | 1.832253e+02 | 2.130000e+02 |  16.25%| unknown
 30.0s|   100 |    35 | 17092 | 131.7 |   524M |  12 | 244 |2578 |2429 |  43 |  8 | 172 | 347 | 1.873125e+02 | 2.130000e+02 |  13.71%|  12.12%
 33.2s|   200 |    63 | 24311 | 102.1 |   532M |  17 | 244 |2629 |2425 |  73 |  0 | 271 | 454 | 1.878935e+02 | 2.130000e+02 |  13.36%|  18.47%
 35.4s|   300 |    79 | 30353 |  88.2 |   532M |  21 | 244 |2652 |2426 |  93 |  0 | 323 | 483 | 1.894521e+02 | 2.130000e+02 |  12.43%|  20.76%
 38.5s|   400 |    91 | 38435 |  86.4 |   533M |  21 | 244 |2702 |2428 | 140 |  3 | 430 | 552 | 1.907589e+02 | 2.130000e+02 |  11.66%|  23.00%
 time | node  | left  |LP iter|LP it/n|mem/heur|mdpt |vars |cons |rows |cuts |sepa|confs|strbr|  dualbound   | primalbound  |  gap   | compl. 
 42.3s|   500 |   137 | 49612 |  91.5 |   533M |  21 | 244 |2749 |2421 | 176 |  1 | 541 | 637 | 1.934397e+02 | 2.130000e+02 |  10.11%|  29.34%
 44.7s|   600 |   155 | 60265 |  94.0 |   532M |  21 | 244 |2768 |2421 | 213 |  0 | 587 | 659 | 1.941047e+02 | 2.130000e+02 |   9.73%|  31.21%
 46.9s|   700 |   181 | 68027 |  91.6 |   532M |  21 | 244 |2776 |2421 | 242 |  0 | 645 | 681 | 1.948934e+02 | 2.130000e+02 |   9.29%|  34.04%
 48.9s|   800 |   187 | 74299 |  88.0 |   532M |  21 | 244 |2761 |2421 | 270 |  0 | 661 | 686 | 1.952464e+02 | 2.130000e+02 |   9.09%|  35.94%
 52.1s|   900 |   201 | 82685 |  87.6 |   532M |  21 | 244 |2756 |2426 | 314 |  1 | 695 | 702 | 1.957454e+02 | 2.130000e+02 |   8.81%|  39.73%
 54.2s|  1000 |   199 | 88216 |  84.3 |   533M |  21 | 244 |2740 |2426 | 342 |  1 | 707 | 708 | 1.967785e+02 | 2.130000e+02 |   8.24%|  42.14%
 55.8s|  1100 |   207 | 93416 |  81.4 |   533M |  21 | 244 |2746 |2424 | 361 |  0 | 733 | 716 | 1.973764e+02 | 2.130000e+02 |   7.92%|  43.70%
 57.2s|  1200 |   203 | 98371 |  78.8 |   533M |  21 | 244 |2749 |2426 | 381 |  0 | 761 | 725 | 1.979436e+02 | 2.130000e+02 |   7.61%|  45.35%
 58.8s|  1300 |   213 |104698 |  77.6 |   533M |  21 | 244 |2742 |2427 | 411 |  0 | 779 | 734 | 1.983872e+02 | 2.130000e+02 |   7.37%|  48.11%
 61.0s|  1400 |   225 |112029 |  77.3 |   533M |  21 | 244 |2734 |2425 | 459 |  0 | 812 | 743 | 1.991114e+02 | 2.130000e+02 |   6.98%|  50.77%
 62.6s|  1500 |   231 |118547 |  76.5 |   533M |  21 | 244 |2750 |2421 | 480 |  0 | 849 | 759 | 1.997487e+02 | 2.130000e+02 |   6.63%|  53.12%
 64.4s|  1600 |   231 |124938 |  75.7 |   533M |  21 | 244 |2770 |2432 | 511 |  6 | 900 | 783 | 2.000309e+02 | 2.130000e+02 |   6.48%|  54.53%
 66.3s|  1700 |   223 |131532 |  75.1 |   534M |  21 | 244 |2772 |2421 | 558 |  1 | 918 | 791 | 2.003284e+02 | 2.130000e+02 |   6.33%|  56.28%
 68.3s|  1800 |   219 |137752 |  74.4 |   536M |  21 | 244 |2769 |2425 | 607 |  2 | 951 | 801 | 2.004776e+02 | 2.130000e+02 |   6.25%|  57.92%
 69.9s|  1900 |   217 |143574 |  73.5 |   536M |  21 | 244 |2770 |2426 | 622 |  0 | 977 | 814 | 2.006062e+02 | 2.130000e+02 |   6.18%|  59.32%
 time | node  | left  |LP iter|LP it/n|mem/heur|mdpt |vars |cons |rows |cuts |sepa|confs|strbr|  dualbound   | primalbound  |  gap   | compl. 
 71.6s|  2000 |   207 |149385 |  72.8 |   536M |  21 | 244 |2775 |2427 | 667 |  0 |1001 | 824 | 2.009741e+02 | 2.130000e+02 |   5.98%|  61.09%
 74.0s|  2100 |   199 |156103 |  72.5 |   537M |  21 | 244 |2781 |2426 | 729 |  6 |1033 | 837 | 2.016491e+02 | 2.130000e+02 |   5.63%|  63.33%
 75.3s|  2200 |   189 |161027 |  71.4 |   537M |  21 | 244 |2786 |2428 | 751 |  0 |1050 | 845 | 2.018006e+02 | 2.130000e+02 |   5.55%|  64.30%
 77.3s|  2300 |   171 |167599 |  71.2 |   537M |  21 | 244 |2784 |2426 | 805 |  2 |1076 | 858 | 2.024847e+02 | 2.130000e+02 |   5.19%|  67.64%
 78.9s|  2400 |   149 |172853 |  70.4 |   537M |  21 | 244 |2786 |2427 | 839 |  0 |1092 | 864 | 2.033488e+02 | 2.130000e+02 |   4.75%|  71.21%
 80.2s|  2500 |   133 |178267 |  69.8 |   537M |  21 | 244 |2794 |2426 | 860 |  1 |1116 | 876 | 2.039982e+02 | 2.130000e+02 |   4.41%|  74.49%
 81.6s|  2600 |    99 |183288 |  69.0 |   537M |  21 | 244 |2792 |2429 | 884 |  3 |1144 | 886 | 2.048657e+02 | 2.130000e+02 |   3.97%|  79.04%
 82.8s|  2700 |    69 |187848 |  68.1 |   537M |  21 | 244 |2790 |2422 | 903 |  0 |1155 | 890 | 2.061182e+02 | 2.130000e+02 |   3.34%|  82.29%
 84.0s|  2800 |    13 |192016 |  67.2 |   537M |  21 | 244 |2785 |2427 | 929 |  0 |1166 | 894 | 2.081396e+02 | 2.130000e+02 |   2.34%|  90.24%

SCIP Status        : problem is solved [optimal solution found]
Solving Time (sec) : 84.15
Solving Nodes      : 2819 (total of 2821 nodes in 3 runs)
Primal Bound       : +2.13000000000000e+02 (461 solutions)
Dual Bound         : +2.13000000000000e+02
Gap                : 0.00 %
Solve Status: optimal
Solve Time: 84.16 seconds
